% demand
num_movements = 20;
loading_factor = [1050, 1400, 1900, 2000, 1950, 950, 1700, 1200, 1850, 800, 1300, 1500, 1700, 800, 1000, 1500, 1950, 1600, 1500, 1100];
pickup_time = [0, 0, 1, 1, 1, 2, 2, 2, 2, 2, 2, 2, 2, 3, 5, 5, 5, 5, 5, 5];
delivery_time = [1, 2, 2, 2, 2, 5, 5, 5, 5, 5, 5, 3, 5, 5, 6, 6, 6, 6, 6, 6];

% transporter definition
total_capacity = 11000;
num_decks = 4;
capacity = [3000, 3000, 1000, 4000];

% ways out of decks
num_ways_out = 2;
paths_out = array3d(decks, ways_out, decks, [
% ways out of deck d1
2, 4, 0, 0, 3, 4, 0, 0, 

% ways out of deck d2
4, 0, 0, 0, 0, 0, 0, 0,	

% ways out of deck d3
4, 0, 0, 0, 0, 0, 0, 0,	

% ways out of deck d4
0, 0, 0, 0,	0, 0, 0, 0,	

]);

